!R2SCAN-3c def2-mTZVPP VeryTightSCF Opt tightopt
%geom 
      MaxIter 800
end
%pal nprocs 16 # any number (positive integer)
end
%maxcore 8000
%FREQ TEMP 323 
	  Pressure   0.0013
END
* xyz 0 2
Si      -2.653783000      2.252582000      0.657961000
O       -4.133840000      2.662667000      1.178548000
O       -1.561844000      2.469769000      1.841125000
O       -2.633162000      0.714072000      0.140584000
Si      -1.332231000      1.945738000      3.362677000
Si      -2.536112000     -0.852150000      0.547402000
Si      -5.460555000      2.048150000      1.881972000
O       -0.313350000      0.685699000      3.370704000
O       -2.758190000      1.467862000      3.987865000
O       -5.303870000      2.054325000      3.497588000
O       -1.513129000     -1.075662000      1.786107000
O       -3.984985000     -1.432383000      0.973551000
O       -5.738996000      0.547096000      1.336800000
Si      -0.111309000     -0.668527000      2.496664000
Si      -4.159963000      1.976954000      4.641131000
Si      -5.430509000     -1.022328000      1.578009000
O       -4.619618000      0.959578000      5.807612000
O        0.383833000     -1.861176000      3.465037000
O       -5.479428000     -1.329249000      3.168012000
Si      -4.376391000     -0.493814000      6.474910000
Si      -5.387086000     -2.413303000      4.365616000
Si      -0.099194000     -2.696710000      4.763512000
O       -5.301229000     -1.622705000      5.776447000
O       -2.821202000     -0.945857000      6.315357000
O       -1.458919000     -3.495194000      4.395819000
O       -4.091752000     -3.362131000      4.138142000
O       -0.311307000     -1.717188000      6.038821000
Si      -2.866607000     -4.130692000      4.854405000
Si      -1.298789000     -0.703141000      6.805179000
F       -3.964550000      3.411519000      5.272813000
F       -6.693535000      2.949687000      1.499106000
F       -6.534574000     -1.871300000      0.837308000
F       -2.028310000     -1.659670000     -0.708107000
F        0.995596000     -0.427824000      1.396084000
F       -0.710245000      3.113425000      4.215982000
F       -4.761551000     -0.406541000      8.000819000
F       -6.685473000     -3.308835000      4.379941000
F       -3.012475000     -4.044983000      6.430733000
F       -2.901606000     -5.649758000      4.437268000
F        1.035352000     -3.727082000      5.130054000
F       -1.171225000     -0.917857000      8.360565000
F       -0.886554000      0.793861000      6.493109000
F       -2.267855000      3.187678000     -0.547778000
F        0.273344005      1.489526924     -0.094463054
*


